50
20582

708 307
174 786
513 359
130 461
629 107
137 672
232 835
203 868
620 188
372 623
971 916
336 841
700 883
415 460
622 922
354 756
592 885
459 223
228 393
544 845
74 76
601 204
871 324
376 921
67 366
376 516
976 55
354 551
583 901
55 137
903 68
85 263
64 596
632 631
332 544
244 268
306 258
595 401
360 787
150 301
515 406
485 20
287 672
329 822
864 591
597 61
1000 602
807 771
343 610
471 965
